(set-logic BV) (define-fun origCir ((n445 Bool) (n269 Bool) (n313 Bool) (n310 Bool) (n119 Bool)) Bool (and (and n445 (not (xor (and n313 n269) (not (and n310 n119))))) (xor (and (not (xor (and n313 n269) (not (and n310 n119)))) (and n310 n119)) (not (and n310 n119))))) (synth-fun skel ((n445 Bool) (n269 Bool) (n313 Bool) (n310 Bool) (n119 Bool)) Bool) (declare-var n445 Bool) (declare-var n269 Bool) (declare-var n313 Bool) (declare-var n310 Bool) (declare-var n119 Bool) (constraint (= (origCir n445 n269 n313 n310 n119) (skel n445 n269 n313 n310 n119))) (check-synth)
